results/res_prop_muc/res_Cimatti_mathsat_cores/QF_UF/PEQ010_size6.smt.smt2.out

real	0m0.178s
user	0m0.128s
sys	0m0.015s
