results/res_prop_muc/res_Cimatti_mathsat_cores/QF_UF/PEQ010_size6.smt.smt2.res
unsat
( _c0
  _c1
  _c266
  _c272
  _c332
  _c333
  _c334
  _c335
  _c336
  _c337
  _c578
  _c585
  _c586
  _c587
  _c588
  _c589
  _c590
  _c591
  _c621
  _c622
  _c623
  _c624
  _c625
  _c626
  _c627
  _c740
  _c741
  _c742
  _c743
  _c744
  _c745
  _c746
  _c747
  _c748
  _c749
  _c750
  _c752
  _c753 )
